(set-info :smt-lib-version 2.6)
(set-logic QF_LRA)
(set-info :source |
SAL benchmark suite.  Created at SRI by Bruno Dutertre, John Rushby, Maria
Sorea, and Leonardo de Moura.  Contact demoura@csl.sri.com for more
information.

This benchmark was automatically translated into SMT-LIB format from
CVC format using CVC Lite
|)
(set-info :category "industrial")
(set-info :status unsat)
(declare-fun x_0 () Bool)
(declare-fun x_1 () Bool)
(declare-fun x_2 () Real)
(declare-fun x_3 () Real)
(declare-fun x_4 () Bool)
(declare-fun x_5 () Bool)
(declare-fun x_6 () Real)
(declare-fun x_7 () Real)
(declare-fun x_8 () Bool)
(declare-fun x_9 () Real)
(declare-fun x_10 () Real)
(declare-fun x_11 () Real)
(declare-fun x_12 () Real)
(declare-fun x_13 () Real)
(declare-fun x_14 () Bool)
(declare-fun x_15 () Bool)
(declare-fun x_16 () Real)
(declare-fun x_17 () Real)
(declare-fun x_18 () Real)
(declare-fun x_19 () Real)
(declare-fun x_20 () Real)
(declare-fun x_21 () Real)
(declare-fun x_22 () Real)
(declare-fun x_23 () Bool)
(declare-fun x_24 () Bool)
(declare-fun x_25 () Real)
(declare-fun x_26 () Real)
(declare-fun x_27 () Real)
(declare-fun x_28 () Real)
(declare-fun x_29 () Real)
(declare-fun x_30 () Real)
(declare-fun x_31 () Real)
(declare-fun x_32 () Bool)
(declare-fun x_33 () Bool)
(declare-fun x_34 () Real)
(declare-fun x_35 () Real)
(declare-fun x_36 () Real)
(declare-fun x_37 () Real)
(declare-fun x_38 () Real)
(declare-fun x_39 () Real)
(declare-fun x_40 () Real)
(declare-fun x_41 () Bool)
(declare-fun x_42 () Bool)
(declare-fun x_43 () Real)
(declare-fun x_44 () Real)
(declare-fun x_45 () Real)
(declare-fun x_46 () Real)
(declare-fun x_47 () Real)
(declare-fun x_48 () Real)
(declare-fun x_49 () Real)
(declare-fun x_50 () Bool)
(declare-fun x_51 () Bool)
(declare-fun x_52 () Real)
(declare-fun x_53 () Real)
(declare-fun x_54 () Real)
(declare-fun x_55 () Real)
(declare-fun x_56 () Real)
(declare-fun x_57 () Real)
(assert (let ((?v_3 (= x_43 40)) (?v_28 (+ x_43 (* x_45 6))) (?v_4 (= x_43 0)) (?v_2 (= x_40 40)) (?v_6 (= x_40 0)) (?v_13 (< (+ (- (* x_43 5) (* x_40 6)) 40) 0)) (?v_31 (+ x_40 (* x_45 5))) (?v_29 (+ x_44 x_45)) (?v_10 (= x_44 2)) (?v_7 (= x_49 x_40)) (?v_24 (not x_41))) (let ((?v_30 (and ?v_24 x_42)) (?v_15 (not x_42))) (let ((?v_18 (and x_41 ?v_15)) (?v_5 (and (= x_50 x_41) (= x_51 x_42))) (?v_8 (= x_52 x_43)) (?v_1 (and ?v_24 ?v_15)) (?v_14 (= x_53 0)) (?v_21 (not x_50))) (let ((?v_17 (and ?v_21 x_51)) (?v_0 (= x_46 0)) (?v_12 (not ?v_2)) (?v_9 (= x_53 x_44)) (?v_27 (or ?v_24 x_42)) (?v_11 (not ?v_6)) (?v_26 (or x_41 x_42)) (?v_20 (not ?v_13)) (?v_16 (or ?v_6 ?v_2)) (?v_19 (= x_52 (ite ?v_3 0 (ite ?v_4 40 x_43)))) (?v_25 (and (and (<= ?v_29 2) (not (< ?v_31 0))) (<= ?v_28 40))) (?v_36 (= x_34 40)) (?v_58 (+ x_34 (* x_36 6))) (?v_37 (= x_34 0)) (?v_35 (= x_31 40)) (?v_39 (= x_31 0)) (?v_46 (< (+ (- (* x_34 5) (* x_31 6)) 40) 0)) (?v_61 (+ x_31 (* x_36 5))) (?v_59 (+ x_35 x_36)) (?v_43 (= x_35 2)) (?v_40 (= x_40 x_31)) (?v_54 (not x_32))) (let ((?v_60 (and ?v_54 x_33)) (?v_48 (not x_33))) (let ((?v_50 (and x_32 ?v_48)) (?v_38 (and (= x_41 x_32) (= x_42 x_33))) (?v_41 (= x_43 x_34)) (?v_34 (and ?v_54 ?v_48)) (?v_47 (= x_44 0)) (?v_33 (= x_37 0)) (?v_45 (not ?v_35)) (?v_42 (= x_44 x_35)) (?v_57 (or ?v_54 x_33)) (?v_44 (not ?v_39)) (?v_56 (or x_32 x_33)) (?v_52 (not ?v_46)) (?v_49 (or ?v_39 ?v_35)) (?v_51 (= x_43 (ite ?v_36 0 (ite ?v_37 40 x_34)))) (?v_55 (and (and (<= ?v_59 2) (not (< ?v_61 0))) (<= ?v_58 40))) (?v_66 (= x_25 40)) (?v_88 (+ x_25 (* x_27 6))) (?v_67 (= x_25 0)) (?v_65 (= x_22 40)) (?v_69 (= x_22 0)) (?v_76 (< (+ (- (* x_25 5) (* x_22 6)) 40) 0)) (?v_91 (+ x_22 (* x_27 5))) (?v_89 (+ x_26 x_27)) (?v_73 (= x_26 2)) (?v_70 (= x_31 x_22)) (?v_84 (not x_23))) (let ((?v_90 (and ?v_84 x_24)) (?v_78 (not x_24))) (let ((?v_80 (and x_23 ?v_78)) (?v_68 (and (= x_32 x_23) (= x_33 x_24))) (?v_71 (= x_34 x_25)) (?v_64 (and ?v_84 ?v_78)) (?v_77 (= x_35 0)) (?v_63 (= x_28 0)) (?v_75 (not ?v_65)) (?v_72 (= x_35 x_26)) (?v_87 (or ?v_84 x_24)) (?v_74 (not ?v_69)) (?v_86 (or x_23 x_24)) (?v_82 (not ?v_76)) (?v_79 (or ?v_69 ?v_65)) (?v_81 (= x_34 (ite ?v_66 0 (ite ?v_67 40 x_25)))) (?v_85 (and (and (<= ?v_89 2) (not (< ?v_91 0))) (<= ?v_88 40))) (?v_96 (= x_16 40)) (?v_118 (+ x_16 (* x_18 6))) (?v_97 (= x_16 0)) (?v_95 (= x_13 40)) (?v_99 (= x_13 0)) (?v_106 (< (+ (- (* x_16 5) (* x_13 6)) 40) 0)) (?v_121 (+ x_13 (* x_18 5))) (?v_119 (+ x_17 x_18)) (?v_103 (= x_17 2)) (?v_100 (= x_22 x_13)) (?v_114 (not x_14))) (let ((?v_120 (and ?v_114 x_15)) (?v_108 (not x_15))) (let ((?v_110 (and x_14 ?v_108)) (?v_98 (and (= x_23 x_14) (= x_24 x_15))) (?v_101 (= x_25 x_16)) (?v_94 (and ?v_114 ?v_108)) (?v_107 (= x_26 0)) (?v_93 (= x_19 0)) (?v_105 (not ?v_95)) (?v_102 (= x_26 x_17)) (?v_117 (or ?v_114 x_15)) (?v_104 (not ?v_99)) (?v_116 (or x_14 x_15)) (?v_112 (not ?v_106)) (?v_109 (or ?v_99 ?v_95)) (?v_111 (= x_25 (ite ?v_96 0 (ite ?v_97 40 x_16)))) (?v_115 (and (and (<= ?v_119 2) (not (< ?v_121 0))) (<= ?v_118 40))) (?v_126 (= x_6 40)) (?v_148 (+ x_6 (* x_9 6))) (?v_127 (= x_6 0)) (?v_125 (= x_3 40)) (?v_129 (= x_3 0)) (?v_136 (< (+ (- (* x_6 5) (* x_3 6)) 40) 0)) (?v_151 (+ x_3 (* x_9 5))) (?v_149 (+ x_7 x_9)) (?v_133 (= x_7 2)) (?v_130 (= x_13 x_3)) (?v_144 (not x_4))) (let ((?v_150 (and ?v_144 x_5)) (?v_138 (not x_5))) (let ((?v_140 (and x_4 ?v_138)) (?v_128 (and (= x_14 x_4) (= x_15 x_5))) (?v_131 (= x_16 x_6)) (?v_124 (and ?v_144 ?v_138)) (?v_137 (= x_17 0)) (?v_123 (= x_10 0)) (?v_135 (not ?v_125)) (?v_132 (= x_17 x_7)) (?v_147 (or ?v_144 x_5)) (?v_134 (not ?v_129)) (?v_146 (or x_4 x_5)) (?v_142 (not ?v_136)) (?v_139 (or ?v_129 ?v_125)) (?v_141 (= x_16 (ite ?v_126 0 (ite ?v_127 40 x_6)))) (?v_145 (and (and (<= ?v_149 2) (not (< ?v_151 0))) (<= ?v_148 40))) (?v_156 (= 10 40)) (?v_176 (+ 10 (* x_2 6))) (?v_157 (= 10 0)) (?v_155 (= 20 40)) (?v_159 (= 20 0)) (?v_165 (< (+ (- (* 10 5) (* 20 6)) 40) 0)) (?v_179 (+ 20 (* x_2 5))) (?v_177 (+ 2 x_2)) (?v_162 (= 2 2)) (?v_160 (= x_3 20)) (?v_172 (not x_0))) (let ((?v_178 (and ?v_172 x_1)) (?v_167 (not x_1))) (let ((?v_169 (and x_0 ?v_167)) (?v_158 (and (= x_4 x_0) (= x_5 x_1))) (?v_161 (= x_6 10)) (?v_153 (and ?v_172 ?v_167)) (?v_166 (= x_7 0)) (?v_154 (not x_8)) (?v_164 (not ?v_155)) (?v_175 (or ?v_172 x_1)) (?v_163 (not ?v_159)) (?v_174 (or x_0 x_1)) (?v_171 (not ?v_165)) (?v_168 (or ?v_159 ?v_155)) (?v_170 (= x_6 (ite ?v_156 0 (ite ?v_157 40 10)))) (?v_173 (and (and (<= ?v_177 2) (not (< ?v_179 0))) (<= ?v_176 40))) (?v_23 (= x_46 1)) (?v_22 (not x_51)) (?v_32 (not (< x_45 0))) (?v_53 (= x_37 1)) (?v_62 (not (< x_36 0))) (?v_83 (= x_28 1)) (?v_92 (not (< x_27 0))) (?v_113 (= x_19 1)) (?v_122 (not (< x_18 0))) (?v_143 (= x_10 1)) (?v_152 (not (< x_9 0)))) (and (and (and (and (and (and (and (and (and (and (and (and (and (and (and (and (and (and (and (and (and (and (and (and (and (and (and (and (and (and (and (and (and (and (and (and (and (and (and (and (and (and (and (and (<= x_55 1) (>= x_55 0)) (<= x_46 1)) (>= x_46 0)) (<= x_37 1)) (>= x_37 0)) (<= x_28 1)) (>= x_28 0)) (<= x_19 1)) (>= x_19 0)) (<= x_10 1)) (>= x_10 0)) ?v_153) (not (< x_54 0))) (= x_55 (ite ?v_23 0 1))) (not (< x_56 0))) (or (or (or (or (or (or (or (or (and (and (and (and (and (and (and (and (and (and (= x_57 0) ?v_0) ?v_1) ?v_10) ?v_11) ?v_12) ?v_13) ?v_14) ?v_7) ?v_8) ?v_5) (and (and (and (and (and (and (and (= x_57 1) ?v_0) ?v_1) (or (or ?v_2 ?v_4) ?v_3)) (= x_49 (ite ?v_2 0 x_40))) ?v_19) ?v_5) ?v_9)) (and (and (and (and (and (and (and (= x_57 2) ?v_0) ?v_1) ?v_16) ?v_17) ?v_7) ?v_8) ?v_9)) (and (and (and (and (and (and (and (and (and (and (and (= x_57 3) ?v_0) ?v_1) ?v_10) ?v_11) ?v_12) ?v_20) x_50) ?v_22) ?v_14) ?v_7) ?v_8)) (and (and (and (and (and (and (and (= x_57 4) ?v_0) ?v_18) ?v_16) ?v_17) ?v_7) ?v_8) ?v_9)) (and (and (and (and (and (and (and (= x_57 5) ?v_0) ?v_18) (or (or ?v_6 ?v_4) ?v_3)) (= x_49 (ite ?v_6 40 x_40))) ?v_19) ?v_5) ?v_9)) (and (and (and (and (and (and (and (and (and (and (= x_57 6) ?v_0) ?v_18) ?v_10) ?v_11) ?v_12) ?v_20) ?v_14) ?v_7) ?v_8) ?v_5)) (and (and (and (and (and (and (and (and (and (and (and (= x_57 7) ?v_0) ?v_18) ?v_10) ?v_11) ?v_12) ?v_13) ?v_21) ?v_22) ?v_14) ?v_7) ?v_8)) (and (and (and (and (and (and (and (and (and (= x_57 8) ?v_23) ?v_32) (or ?v_26 ?v_25)) (or ?v_27 ?v_25)) (or (and ?v_26 ?v_27) (and (not (< (* x_56 2) (- (* x_43 2) x_45))) (<= x_56 ?v_28)))) (= x_53 (ite ?v_30 x_44 ?v_29))) (= x_49 (ite ?v_30 x_40 ?v_31))) (= x_52 (ite ?v_30 x_43 x_56))) ?v_5))) ?v_32) (= x_46 (ite ?v_53 0 1))) (not (< x_47 0))) (or (or (or (or (or (or (or (or (and (and (and (and (and (and (and (and (and (and (= x_48 0) ?v_33) ?v_34) ?v_43) ?v_44) ?v_45) ?v_46) ?v_47) ?v_40) ?v_41) ?v_38) (and (and (and (and (and (and (and (= x_48 1) ?v_33) ?v_34) (or (or ?v_35 ?v_37) ?v_36)) (= x_40 (ite ?v_35 0 x_31))) ?v_51) ?v_38) ?v_42)) (and (and (and (and (and (and (and (= x_48 2) ?v_33) ?v_34) ?v_49) ?v_30) ?v_40) ?v_41) ?v_42)) (and (and (and (and (and (and (and (and (and (and (and (= x_48 3) ?v_33) ?v_34) ?v_43) ?v_44) ?v_45) ?v_52) x_41) ?v_15) ?v_47) ?v_40) ?v_41)) (and (and (and (and (and (and (and (= x_48 4) ?v_33) ?v_50) ?v_49) ?v_30) ?v_40) ?v_41) ?v_42)) (and (and (and (and (and (and (and (= x_48 5) ?v_33) ?v_50) (or (or ?v_39 ?v_37) ?v_36)) (= x_40 (ite ?v_39 40 x_31))) ?v_51) ?v_38) ?v_42)) (and (and (and (and (and (and (and (and (and (and (= x_48 6) ?v_33) ?v_50) ?v_43) ?v_44) ?v_45) ?v_52) ?v_47) ?v_40) ?v_41) ?v_38)) (and (and (and (and (and (and (and (and (and (and (and (= x_48 7) ?v_33) ?v_50) ?v_43) ?v_44) ?v_45) ?v_46) ?v_24) ?v_15) ?v_47) ?v_40) ?v_41)) (and (and (and (and (and (and (and (and (and (= x_48 8) ?v_53) ?v_62) (or ?v_56 ?v_55)) (or ?v_57 ?v_55)) (or (and ?v_56 ?v_57) (and (not (< (* x_47 2) (- (* x_34 2) x_36))) (<= x_47 ?v_58)))) (= x_44 (ite ?v_60 x_35 ?v_59))) (= x_40 (ite ?v_60 x_31 ?v_61))) (= x_43 (ite ?v_60 x_34 x_47))) ?v_38))) ?v_62) (= x_37 (ite ?v_83 0 1))) (not (< x_38 0))) (or (or (or (or (or (or (or (or (and (and (and (and (and (and (and (and (and (and (= x_39 0) ?v_63) ?v_64) ?v_73) ?v_74) ?v_75) ?v_76) ?v_77) ?v_70) ?v_71) ?v_68) (and (and (and (and (and (and (and (= x_39 1) ?v_63) ?v_64) (or (or ?v_65 ?v_67) ?v_66)) (= x_31 (ite ?v_65 0 x_22))) ?v_81) ?v_68) ?v_72)) (and (and (and (and (and (and (and (= x_39 2) ?v_63) ?v_64) ?v_79) ?v_60) ?v_70) ?v_71) ?v_72)) (and (and (and (and (and (and (and (and (and (and (and (= x_39 3) ?v_63) ?v_64) ?v_73) ?v_74) ?v_75) ?v_82) x_32) ?v_48) ?v_77) ?v_70) ?v_71)) (and (and (and (and (and (and (and (= x_39 4) ?v_63) ?v_80) ?v_79) ?v_60) ?v_70) ?v_71) ?v_72)) (and (and (and (and (and (and (and (= x_39 5) ?v_63) ?v_80) (or (or ?v_69 ?v_67) ?v_66)) (= x_31 (ite ?v_69 40 x_22))) ?v_81) ?v_68) ?v_72)) (and (and (and (and (and (and (and (and (and (and (= x_39 6) ?v_63) ?v_80) ?v_73) ?v_74) ?v_75) ?v_82) ?v_77) ?v_70) ?v_71) ?v_68)) (and (and (and (and (and (and (and (and (and (and (and (= x_39 7) ?v_63) ?v_80) ?v_73) ?v_74) ?v_75) ?v_76) ?v_54) ?v_48) ?v_77) ?v_70) ?v_71)) (and (and (and (and (and (and (and (and (and (= x_39 8) ?v_83) ?v_92) (or ?v_86 ?v_85)) (or ?v_87 ?v_85)) (or (and ?v_86 ?v_87) (and (not (< (* x_38 2) (- (* x_25 2) x_27))) (<= x_38 ?v_88)))) (= x_35 (ite ?v_90 x_26 ?v_89))) (= x_31 (ite ?v_90 x_22 ?v_91))) (= x_34 (ite ?v_90 x_25 x_38))) ?v_68))) ?v_92) (= x_28 (ite ?v_113 0 1))) (not (< x_29 0))) (or (or (or (or (or (or (or (or (and (and (and (and (and (and (and (and (and (and (= x_30 0) ?v_93) ?v_94) ?v_103) ?v_104) ?v_105) ?v_106) ?v_107) ?v_100) ?v_101) ?v_98) (and (and (and (and (and (and (and (= x_30 1) ?v_93) ?v_94) (or (or ?v_95 ?v_97) ?v_96)) (= x_22 (ite ?v_95 0 x_13))) ?v_111) ?v_98) ?v_102)) (and (and (and (and (and (and (and (= x_30 2) ?v_93) ?v_94) ?v_109) ?v_90) ?v_100) ?v_101) ?v_102)) (and (and (and (and (and (and (and (and (and (and (and (= x_30 3) ?v_93) ?v_94) ?v_103) ?v_104) ?v_105) ?v_112) x_23) ?v_78) ?v_107) ?v_100) ?v_101)) (and (and (and (and (and (and (and (= x_30 4) ?v_93) ?v_110) ?v_109) ?v_90) ?v_100) ?v_101) ?v_102)) (and (and (and (and (and (and (and (= x_30 5) ?v_93) ?v_110) (or (or ?v_99 ?v_97) ?v_96)) (= x_22 (ite ?v_99 40 x_13))) ?v_111) ?v_98) ?v_102)) (and (and (and (and (and (and (and (and (and (and (= x_30 6) ?v_93) ?v_110) ?v_103) ?v_104) ?v_105) ?v_112) ?v_107) ?v_100) ?v_101) ?v_98)) (and (and (and (and (and (and (and (and (and (and (and (= x_30 7) ?v_93) ?v_110) ?v_103) ?v_104) ?v_105) ?v_106) ?v_84) ?v_78) ?v_107) ?v_100) ?v_101)) (and (and (and (and (and (and (and (and (and (= x_30 8) ?v_113) ?v_122) (or ?v_116 ?v_115)) (or ?v_117 ?v_115)) (or (and ?v_116 ?v_117) (and (not (< (* x_29 2) (- (* x_16 2) x_18))) (<= x_29 ?v_118)))) (= x_26 (ite ?v_120 x_17 ?v_119))) (= x_22 (ite ?v_120 x_13 ?v_121))) (= x_25 (ite ?v_120 x_16 x_29))) ?v_98))) ?v_122) (= x_19 (ite ?v_143 0 1))) (not (< x_20 0))) (or (or (or (or (or (or (or (or (and (and (and (and (and (and (and (and (and (and (= x_21 0) ?v_123) ?v_124) ?v_133) ?v_134) ?v_135) ?v_136) ?v_137) ?v_130) ?v_131) ?v_128) (and (and (and (and (and (and (and (= x_21 1) ?v_123) ?v_124) (or (or ?v_125 ?v_127) ?v_126)) (= x_13 (ite ?v_125 0 x_3))) ?v_141) ?v_128) ?v_132)) (and (and (and (and (and (and (and (= x_21 2) ?v_123) ?v_124) ?v_139) ?v_120) ?v_130) ?v_131) ?v_132)) (and (and (and (and (and (and (and (and (and (and (and (= x_21 3) ?v_123) ?v_124) ?v_133) ?v_134) ?v_135) ?v_142) x_14) ?v_108) ?v_137) ?v_130) ?v_131)) (and (and (and (and (and (and (and (= x_21 4) ?v_123) ?v_140) ?v_139) ?v_120) ?v_130) ?v_131) ?v_132)) (and (and (and (and (and (and (and (= x_21 5) ?v_123) ?v_140) (or (or ?v_129 ?v_127) ?v_126)) (= x_13 (ite ?v_129 40 x_3))) ?v_141) ?v_128) ?v_132)) (and (and (and (and (and (and (and (and (and (and (= x_21 6) ?v_123) ?v_140) ?v_133) ?v_134) ?v_135) ?v_142) ?v_137) ?v_130) ?v_131) ?v_128)) (and (and (and (and (and (and (and (and (and (and (and (= x_21 7) ?v_123) ?v_140) ?v_133) ?v_134) ?v_135) ?v_136) ?v_114) ?v_108) ?v_137) ?v_130) ?v_131)) (and (and (and (and (and (and (and (and (and (= x_21 8) ?v_143) ?v_152) (or ?v_146 ?v_145)) (or ?v_147 ?v_145)) (or (and ?v_146 ?v_147) (and (not (< (* x_20 2) (- (* x_6 2) x_9))) (<= x_20 ?v_148)))) (= x_17 (ite ?v_150 x_7 ?v_149))) (= x_13 (ite ?v_150 x_3 ?v_151))) (= x_16 (ite ?v_150 x_6 x_20))) ?v_128))) ?v_152) (= x_10 (ite x_8 0 1))) (not (< x_11 0))) (or (or (or (or (or (or (or (or (and (and (and (and (and (and (and (and (and (and (= x_12 0) ?v_154) ?v_153) ?v_162) ?v_163) ?v_164) ?v_165) ?v_166) ?v_160) ?v_161) ?v_158) (and (and (and (and (and (and (and (= x_12 1) ?v_154) ?v_153) (or (or ?v_155 ?v_157) ?v_156)) (= x_3 (ite ?v_155 0 20))) ?v_170) ?v_158) ?v_133)) (and (and (and (and (and (and (and (= x_12 2) ?v_154) ?v_153) ?v_168) ?v_150) ?v_160) ?v_161) ?v_133)) (and (and (and (and (and (and (and (and (and (and (and (= x_12 3) ?v_154) ?v_153) ?v_162) ?v_163) ?v_164) ?v_171) x_4) ?v_138) ?v_166) ?v_160) ?v_161)) (and (and (and (and (and (and (and (= x_12 4) ?v_154) ?v_169) ?v_168) ?v_150) ?v_160) ?v_161) ?v_133)) (and (and (and (and (and (and (and (= x_12 5) ?v_154) ?v_169) (or (or ?v_159 ?v_157) ?v_156)) (= x_3 (ite ?v_159 40 20))) ?v_170) ?v_158) ?v_133)) (and (and (and (and (and (and (and (and (and (and (= x_12 6) ?v_154) ?v_169) ?v_162) ?v_163) ?v_164) ?v_171) ?v_166) ?v_160) ?v_161) ?v_158)) (and (and (and (and (and (and (and (and (and (and (and (= x_12 7) ?v_154) ?v_169) ?v_162) ?v_163) ?v_164) ?v_165) ?v_144) ?v_138) ?v_166) ?v_160) ?v_161)) (and (and (and (and (and (and (and (and (and (= x_12 8) x_8) (not (< x_2 0))) (or ?v_174 ?v_173)) (or ?v_175 ?v_173)) (or (and ?v_174 ?v_175) (and (not (< (* x_11 2) (- (* 10 2) x_2))) (<= x_11 ?v_176)))) (= x_7 (ite ?v_178 2 ?v_177))) (= x_3 (ite ?v_178 20 ?v_179))) (= x_6 (ite ?v_178 10 x_11))) ?v_158))) (or (or (or (or (or (or (= x_49 x_52) (= x_40 x_43)) (= x_31 x_34)) (= x_22 x_25)) (= x_13 x_16)) (= x_3 x_6)) (= 20 10))) (or ?v_167 ?v_172)) (or ?v_138 ?v_144)) (or ?v_108 ?v_114)) (or ?v_78 ?v_84)) (or ?v_48 ?v_54)) (or ?v_15 ?v_24)) (or ?v_22 ?v_21)))))))))))))))))
(check-sat)
(exit)
